sat

(objectives
 ((bvadd PriceProv6 (bvadd PriceProv5 (bvadd PriceProv4 (bvadd PriceProv3 (bvadd PriceProv1 PriceProv2))))) (_ bv12832 32))
)
;; statistics
(
 :cnf-variables 566
 :cnf-literals 1365
 :cnf-clauses 670
 :sat-checks 7
 :sat-restarts 16
 :sat-decisions 10404
 :sat-random-decisions 9
 :sat-propagations 24205494
 :sat-theory-propagations 0
 :sat-watched-clauses-visited 26767314
 :sat-binary-watched-clauses-visited 15964132
 :sat-conflicts 3417
 :sat-theory-conflicts 0
 :theory-necessary-interface-equalities 0
 :theory-extra-interface-equalities 0
 :euf-total-calls 11958
 :euf-complete-calls 6
 :euf-conflicts 0
 :euf-implications 0
 :euf-explanations 0
 :euf-egraph-nodes-created 11374
 :euf-egraph-nodes-deleted 9450
 :euf-num-asserted-equalities 148518
 :euf-num-asserted-inequalities 61946
 :euf-num-merges 359649
 :euf-num-merges-undone 359649
 :euf-num-atoms-retold 2144
 :la-total-calls 11958
 :la-complete-calls 6
 :la-conflicts 0
 :la-implications 0
 :la-explanations 0
 :la-num-equalities-split 0
 :la-num-tableau-rows 0
 :la-num-tableau-variables 0
 :bv-total-calls 11958
 :bv-complete-calls 6
 :bv-conflicts 0
 :bv-implications 0
 :bv-explanations 0
 :fp-total-calls 11958
 :fp-complete-calls 6
 :fp-conflicts 0
 :fp-implications 0
 :fp-explanations 0
 :arr-total-calls 11958
 :arr-complete-calls 6
 :arr-conflicts 0
 :arr-implications 0
 :arr-explanations 0
 :arr-write-lemmas-added 0
 :arr-row-lemmas-added 0
 :arr-ext-lemmas-added 0
 :arr-const-lemmas-added 0
 :na-total-calls 11958
 :na-complete-calls 6
 :na-conflicts 0
 :na-implications 0
 :na-explanations 0
 :na-num_nonlinear_multiplications 0
 :na-num_axiom_checks 0
 :na-num_zero_lemmas 0
 :na-num_sign_lemmas 0
 :na-num_neutral_lemmas 0
 :na-num_proportionality_lemmas 0
 :na-num_bound_lemmas 0
 :na-num_tangent_lemmas 0
 :na-num_monotonicity_lemmas 0
 :na-num_sat_checks 0
 :na-axiom_check_time 0.000
 :na-sat_check_time 0.000
 :time-seconds 2.508
 :memory-mb 38.258
)
